NAME: random72
TYPE: TSP
DIMENSION: 72
EDGE_WEIGHT_TYPE: EXPLICIT
EDGE_WEIGHT_FORMAT: FULL_MATRIX
EDGE_WEIGHT_SECTION
0 1270 1270 1270 19 1270 1270 1270 1270 1270 1270 1270 1270 1270 1270 1270 1270 1270 1270 25 1270 1270 1270 1270 1270 1270 1270 1270 1270 1270 1270 1270 1270 1270 1270 1270 1270 1270 1270 1270 1270 1270 21 1270 1270 1270 1270 1270 1270 1270 1270 1270 1270 1270 1270 1270 1270 1270 1270 1270 1270 1270 1270 15 1270 1270 1270 1270 18 16 1270 1270
1270 0 1270 1270 1270 1270 17 1270 1270 1270 1270 1270 1270 1270 1270 1270 1270 1270 1270 1270 1270 1270 1270 1270 1270 1270 1270 1270 6 1270 1270 1270 1270 1270 1270 1270 1270 1270 1270 1270 14 1270 1270 1270 1270 1270 1270 1270 1270 16 1270 1270 11 1270 1270 1270 1270 1270 1270 1270 1270 1270 9 1270 1270 1270 1270 1270 1270 1270 1270 10
1270 1270 0 1270 1270 1270 1270 5 1270 21 1270 1270 1270 1270 12 1270 1270 1270 1270 1270 1270 1270 1270 23 1270 1270 1270 1270 1270 1270 1270 1270 1270 1270 21 1270 1270 1270 1270 1270 22 1270 1270 1270 1270 1270 1270 1270 1270 1270 1270 1270 18 1270 1270 1270 1270 20 1270 11 1270 1270 1270 1270 1270 1270 1270 1270 1270 1270 1270 1270
1270 1270 1270 0 1270 1270 1270 1270 1270 1270 1270 1270 16 1270 1270 10 1270 1270 1270 1270 1270 1270 1270 1270 10 1270 1270 1270 1270 1270 1270 1270 1270 1270 1270 1270 1270 1270 1270 1270 1270 1270 1270 4 1270 1270 1270 1270 8 1270 1270 1270 1270 1270 1270 1270 1270 1270 1270 1270 1270 1270 1270 1270 1270 1270 1270 1270 1270 1270 1270 1270
19 1270 1270 1270 0 1270 1270 1270 1270 1270 1270 1270 1270 1270 1270 1270 1270 1270 1270 1270 1270 1270 1270 1270 1270 1270 1270 1270 1270 1270 1270 1270 1270 1270 1270 1270 1270 1270 5 1270 1270 1270 13 1270 1270 1270 1270 1270 1270 1270 1270 1270 1270 1270 1270 1270 1270 1270 1270 1270 1270 1270 1270 1270 1270 1270 1270 1270 1270 6 1270 1270
1270 1270 1270 1270 1270 0 1270 1270 22 1270 1270 1270 1270 1270 25 1270 1270 1270 1270 28 1270 1270 1270 1270 1270 1270 1270 1270 1270 1270 1270 1270 22 1270 1270 1270 1270 1270 1270 1270 1270 1270 1270 1270 1270 1270 1270 1270 1270 1270 1270 22 1270 1270 42 1270 1270 1270 1270 1270 1270 1270 1270 41 1270 53 1270 1270 1270 1270 1270 1270
1270 17 1270 1270 1270 1270 0 1270 1270 1270 9 1270 1270 1270 1270 1270 1270 1270 1270 1270 1270 1270 1270 1270 1270 1270 1270 1270 1270 1270 1270 1270 1270 1270 1270 1270 1270 1270 1270 1270 12 1270 1270 1270 1270 1270 1270 1270 1270 6 1270 1270 1270 1270 1270 1270 1270 1270 1270 1270 1270 1270 1270 1270 1270 1270 10 1270 1270 1270 1270 1270
1270 1270 5 1270 1270 1270 1270 0 1270 1270 1270 1270 1270 1270 8 1270 1270 1270 1270 6 1270 1270 1270 1270 1270 1270 1270 1270 1270 1270 1270 1270 1270 1270 1270 1270 1270 1270 1270 1270 1270 1270 1270 1270 1270 1270 1270 1270 1270 1270 1270 1270 1270 1270 1270 1270 1270 1270 1270 11 1270 1270 1270 1270 1270 1270 1270 1270 1270 1270 1270 1270
1270 1270 1270 1270 1270 22 1270 1270 0 1270 1270 1270 1270 1270 1270 1270 11 1270 1270 1270 1270 1270 11 1270 1270 1270 1270 1270 1270 1270 1270 1270 13 1270 1270 14 1270 1270 1270 1270 1270 1270 1270 1270 1270 1270 1270 1270 1270 1270 3 4 1270 1270 1270 1270 1270 9 1270 1270 1270 1270 1270 1270 1270 1270 1270 1270 1270 1270 1270 1270
1270 1270 21 1270 1270 1270 1270 1270 1270 0 1270 1270 1270 1270 1270 1270 1270 1270 1270 1270 1270 1270 1270 1270 1270 1270 1270 1270 1270 1270 1270 1270 1270 1270 1 11 1270 1270 1270 1270 1270 1270 1270 1270 1270 1270 1270 1270 1270 1270 1270 1270 1270 1270 1270 1270 1270 8 1270 1270 1270 1270 1270 1270 1270 1270 1270 1270 1270 1270 1270 1270
1270 1270 1270 1270 1270 1270 9 1270 1270 1270 0 1270 1270 1270 1270 1270 1270 16 1270 1270 1270 1270 1270 1270 1270 16 1270 1270 1270 1270 1270 1270 1270 1270 1270 1270 1270 1270 1270 1270 1270 1270 1270 1270 1270 1270 1270 1270 1270 12 1270 1270 1270 1270 1270 1270 7 1270 1270 1270 1270 1270 1270 1270 1270 1270 14 1270 1270 1270 1270 1270
1270 1270 1270 1270 1270 1270 1270 1270 1270 1270 1270 0 11 1270 1270 16 1270 1270 1270 1270 9 1270 1270 1270 12 1270 1270 1270 1270 1270 1270 1270 1270 1270 1270 1270 1270 1270 1270 1270 1270 1270 1270 1270 1270 1270 1270 1270 1270 1270 1270 1270 1270 12 1270 1270 1270 1270 1270 1270 12 1270 1270 1270 1270 1270 1270 1270 1270 1270 20 15
1270 1270 1270 16 1270 1270 1270 1270 1270 1270 1270 11 0 1270 1270 1270 1270 1270 1270 1270 1270 1270 1270 1270 8 1270 1270 1270 7 1270 1270 1270 1270 1270 1270 1270 1270 1270 1270 1270 1270 1270 1270 1270 1270 1270 1270 1270 18 1270 1270 1270 1270 1270 1270 1270 1270 1270 1270 1270 7 1270 7 1270 1270 1270 1270 1270 1270 1270 1270 1270
1270 1270 1270 1270 1270 1270 1270 1270 1270 1270 1270 1270 1270 0 1270 1270 1270 1270 1270 1270 1270 5 1270 1270 1270 1270 9 1270 1270 13 1270 1270 1270 1270 1270 1270 1270 1270 1270 1270 1270 1270 1270 1270 1270 1270 1270 1270 1270 1270 1270 1270 1270 1270 1270 1270 1270 1270 1270 1270 1270 1270 1270 1270 1270 1270 1270 1270 1270 50 1270 1270
1270 1270 12 1270 1270 25 1270 8 1270 1270 1270 1270 1270 1270 0 1270 1270 1270 1270 8 1270 1270 1270 1270 1270 1270 1270 1270 1270 1270 1270 1270 1270 1270 1270 1270 1270 1270 1270 1270 1270 1270 1270 1270 1270 1270 1270 1270 1270 1270 1270 12 1270 1270 1270 1270 1270 14 1270 1270 1270 1270 1270 1270 1270 1270 1270 1270 1270 1270 1270 1270
1270 1270 1270 10 1270 1270 1270 1270 1270 1270 1270 16 1270 1270 1270 0 1270 1270 1270 1270 1270 1270 1270 1270 7 1270 1270 1270 1270 1270 1270 11 1270 1270 1270 1270 1270 1270 1270 1270 1270 1270 1270 11 1270 1270 1270 1270 1270 1270 1270 1270 1270 1270 1270 1270 1270 1270 6 1270 1270 1270 1270 1270 1270 1270 1270 1270 1270 1270 12 1270
1270 1270 1270 1270 1270 1270 1270 1270 11 1270 1270 1270 1270 1270 1270 1270 0 1270 1270 1270 1270 1270 9 1270 1270 1270 1270 1270 1270 1270 1270 1270 2 1270 1270 1270 1270 1270 1270 1270 1270 1270 1270 1270 1270 1270 1270 1270 1270 1270 1270 1270 1270 1270 1270 1270 1270 1270 1270 1270 1270 1270 1270 1270 1270 1270 1270 5 1270 1270 1270 1270
1270 1270 1270 1270 1270 1270 1270 1270 1270 1270 16 1270 1270 1270 1270 1270 1270 0 1270 1270 1270 1270 1270 1270 1270 14 10 1270 1270 1270 1270 1270 1270 1270 1270 1270 1270 1270 1270 1270 1270 4 1270 1270 10 1270 1270 1270 1270 1270 1270 1270 1270 1270 1270 1270 19 1270 1270 1270 1270 1270 1270 1270 1270 1270 1270 1270 1270 1270 1270 1270
1270 1270 1270 1270 1270 1270 1270 1270 1270 1270 1270 1270 1270 1270 1270 1270 1270 1270 0 1270 1270 1270 1270 1270 1270 1270 64 1270 1270 1270 1270 24 1270 24 1270 1270 1270 1270 1270 1270 1270 1270 1270 12 1270 1270 1270 1270 19 1270 1270 1270 1270 1270 1270 1270 1270 1270 18 1270 1270 1270 1270 1270 1270 1270 1270 1270 1270 1270 26 1270
25 1270 1270 1270 1270 28 1270 6 1270 1270 1270 1270 1270 1270 8 1270 1270 1270 1270 0 1270 1270 1270 1270 1270 1270 1270 1270 1270 1270 1270 1270 1270 1270 1270 1270 1270 1270 1270 1270 1270 1270 1270 1270 1270 1270 1270 1270 1270 1270 1270 1270 1270 1270 1270 1270 1270 1270 1270 11 1270 1270 1270 35 1270 1270 1270 1270 16 1270 1270 1270
1270 1270 1270 1270 1270 1270 1270 1270 1270 1270 1270 9 1270 1270 1270 1270 1270 1270 1270 1270 0 1270 1270 1270 1270 1270 1270 1270 1270 1270 1270 1270 1270 1270 1270 1270 1270 1270 1270 1270 1270 1270 1270 1270 1270 1270 21 1270 1270 1270 1270 1270 1270 14 1270 28 1270 1270 1270 1270 1270 1270 1270 1270 1270 1270 1270 1270 1270 1270 17 1270
1270 1270 1270 1270 1270 1270 1270 1270 1270 1270 1270 1270 1270 5 1270 1270 1270 1270 1270 1270 1270 0 1270 1270 1270 1270 10 1270 1270 8 1270 1270 1270 1270 1270 1270 1270 1270 1270 1270 1270 10 1270 1270 10 1270 1270 1270 1270 1270 1270 1270 1270 1270 1270 1270 1270 1270 1270 1270 1270 1270 1270 1270 1270 1270 1270 1270 1270 1270 1270 1270
1270 1270 1270 1270 1270 1270 1270 1270 11 1270 1270 1270 1270 1270 1270 1270 9 1270 1270 1270 1270 1270 0 1270 1270 1270 1270 1270 1270 1270 1270 1270 1270 1270 1270 9 1270 1270 1270 1270 1270 1270 1270 1270 1270 6 1270 1270 1270 1270 1270 1270 1270 1270 1270 1270 1270 1270 1270 1270 1270 1270 1270 1270 7 1270 1270 10 1270 1270 1270 1270
1270 1270 23 1270 1270 1270 1270 1270 1270 1270 1270 1270 1270 1270 1270 1270 1270 1270 1270 1270 1270 1270 1270 0 1270 1270 1270 1270 1270 1270 15 1270 1270 1270 1270 1270 6 20 1270 1270 8 1270 17 1270 1270 1270 1270 1270 1270 1270 1270 1270 1270 1270 1270 1270 1270 1270 1270 21 1270 1270 1270 1270 1270 1270 8 1270 1270 1270 1270 1270
1270 1270 1270 10 1270 1270 1270 1270 1270 1270 1270 12 8 1270 1270 7 1270 1270 1270 1270 1270 1270 1270 1270 0 1270 1270 1270 1270 1270 1270 1270 1270 1270 1270 1270 1270 1270 1270 1270 1270 1270 1270 1270 1270 1270 1270 1270 1270 1270 1270 1270 1270 1270 1270 1270 1270 1270 1270 1270 1270 1270 1270 1270 1270 1270 1270 1270 1270 1270 1270 1270
1270 1270 1270 1270 1270 1270 1270 1270 1270 1270 16 1270 1270 1270 1270 1270 1270 14 1270 1270 1270 1270 1270 1270 1270 0 1270 1270 1270 1270 16 1270 1270 1270 1270 1270 8 1270 1270 1270 1270 1270 1270 1270 15 1270 1270 1270 1270 1270 1270 1270 1270 1270 1270 1270 1270 1270 1270 1270 1270 1270 1270 1270 1270 1270 10 1270 1270 1270 1270 1270
1270 1270 1270 1270 1270 1270 1270 1270 1270 1270 1270 1270 1270 9 1270 1270 1270 10 64 1270 1270 10 1270 1270 1270 1270 0 1270 1270 1270 1270 1270 1270 41 1270 1270 1270 1270 1270 1270 1270 8 1270 1270 1270 1270 1270 1270 1270 1270 1270 1270 1270 1270 1270 1270 24 1270 1270 1270 1270 1270 1270 1270 1270 1270 1270 1270 1270 1270 1270 1270
1270 1270 1270 1270 1270 1270 1270 1270 1270 1270 1270 1270 1270 1270 1270 1270 1270 1270 1270 1270 1270 1270 1270 1270 1270 1270 1270 0 1270 1270 1270 1270 1270 1270 1270 1270 1270 1270 1270 6 1270 1270 1270 1270 1270 1270 1270 9 1270 1270 1270 1270 1270 1270 1270 1270 1270 1270 1270 1270 1270 12 1270 1270 1270 14 1270 14 1270 1270 1270 1270
1270 6 1270 1270 1270 1270 1270 1270 1270 1270 1270 1270 7 1270 1270 1270 1270 1270 1270 1270 1270 1270 1270 1270 1270 1270 1270 1270 0 1270 1270 1270 1270 1270 1270 1270 1270 1270 1270 1270 1270 1270 1270 1270 1270 1270 1270 1270 1270 1270 1270 1270 1270 1270 1270 1270 1270 1270 1270 1270 3 1270 5 1270 1270 1270 1270 1270 1270 1270 1270 8
1270 1270 1270 1270 1270 1270 1270 1270 1270 1270 1270 1270 1270 13 1270 1270 1270 1270 1270 1270 1270 8 1270 1270 1270 1270 1270 1270 1270 0 1270 1270 1270 1270 1270 1270 1270 1270 27 1270 1270 1270 1270 1270 5 1270 1270 1270 1270 1270 1270 1270 1270 1270 1270 1270 1270 1270 1270 1270 1270 1270 1270 1270 1270 1270 1270 1270 1270 38 1270 1270
1270 1270 1270 1270 1270 1270 1270 1270 1270 1270 1270 1270 1270 1270 1270 1270 1270 1270 1270 1270 1270 1270 1270 15 1270 16 1270 1270 1270 1270 0 1270 1270 1270 1270 1270 15 1270 10 1270 1270 1270 8 1270 24 1270 1270 1270 1270 1270 1270 1270 1270 1270 1270 1270 1270 1270 1270 1270 1270 1270 1270 1270 1270 1270 1270 1270 1270 1270 1270 1270
1270 1270 1270 1270 1270 1270 1270 1270 1270 1270 1270 1270 1270 1270 1270 11 1270 1270 24 1270 1270 1270 1270 1270 1270 1270 1270 1270 1270 1270 1270 0 1270 1270 1270 1270 1270 1270 1270 1270 1270 1270 1270 1270 1270 1270 1270 1270 1270 1270 1270 1270 1270 1270 1270 1270 1270 1270 6 1270 1270 1270 1270 1270 1270 1270 1270 1270 1270 1270 2 1270
1270 1270 1270 1270 1270 22 1270 1270 13 1270 1270 1270 1270 1270 1270 1270 2 1270 1270 1270 1270 1270 1270 1270 1270 1270 1270 1270 1270 1270 1270 1270 0 1270 1270 1270 1270 1270 1270 1270 1270 1270 1270 1270 1270 1270 1270 1270 1270 1270 1270 1270 1270 1270 1270 1270 1270 1270 1270 1270 1270 1270 1270 1270 1270 32 1270 5 1270 1270 1270 1270
1270 1270 1270 1270 1270 1270 1270 1270 1270 1270 1270 1270 1270 1270 1270 1270 1270 1270 24 1270 1270 1270 1270 1270 1270 1270 41 1270 1270 1270 1270 1270 1270 0 1270 1270 1270 1270 1270 1270 1270 1270 1270 1270 1270 1270 1270 1270 9 16 1270 1270 1270 1270 1270 1270 18 1270 1270 1270 1270 1270 1270 1270 1270 1270 1270 1270 1270 1270 1270 1270
1270 1270 21 1270 1270 1270 1270 1270 1270 1 1270 1270 1270 1270 1270 1270 1270 1270 1270 1270 1270 1270 1270 1270 1270 1270 1270 1270 1270 1270 1270 1270 1270 1270 0 11 1270 1270 1270 1270 1270 1270 1270 1270 1270 1270 1270 1270 1270 1270 1270 1270 16 15 1270 1270 1270 1270 1270 1270 1270 1270 1270 1270 1270 1270 1270 1270 1270 1270 1270 1270
1270 1270 1270 1270 1270 1270 1270 1270 14 11 1270 1270 1270 1270 1270 1270 1270 1270 1270 1270 1270 1270 9 1270 1270 1270 1270 1270 1270 1270 1270 1270 1270 1270 11 0 1270 1270 1270 1270 1270 1270 1270 1270 1270 1270 14 1270 1270 1270 1270 1270 1270 20 1270 1270 1270 12 1270 1270 1270 1270 1270 1270 3 1270 1270 1270 1270 1270 1270 1270
1270 1270 1270 1270 1270 1270 1270 1270 1270 1270 1270 1270 1270 1270 1270 1270 1270 1270 1270 1270 1270 1270 1270 6 1270 8 1270 1270 1270 1270 15 1270 1270 1270 1270 1270 0 1270 1270 1270 1270 1270 1270 1270 1270 1270 1270 1270 1270 1270 1270 1270 1270 1270 1270 1270 1270 1270 1270 1270 1270 1270 1270 1270 1270 1270 4 1270 1270 1270 1270 1270
1270 1270 1270 1270 1270 1270 1270 1270 1270 1270 1270 1270 1270 1270 1270 1270 1270 1270 1270 1270 1270 1270 1270 20 1270 1270 1270 1270 1270 1270 1270 1270 1270 1270 1270 1270 1270 0 1270 1270 1270 1270 10 1270 1270 1270 1270 1270 1270 1270 1270 1270 1270 1270 1270 1270 1270 1270 1270 4 1270 1270 1270 1270 1270 1270 1270 1270 3 1270 1270 1270
1270 1270 1270 1270 5 1270 1270 1270 1270 1270 1270 1270 1270 1270 1270 1270 1270 1270 1270 1270 1270 1270 1270 1270 1270 1270 1270 1270 1270 27 10 1270 1270 1270 1270 1270 1270 1270 0 1270 1270 1270 13 1270 27 1270 1270 1270 1270 1270 1270 1270 1270 1270 1270 1270 1270 1270 1270 1270 1270 1270 1270 1270 1270 1270 1270 1270 1270 11 1270 1270
1270 1270 1270 1270 1270 1270 1270 1270 1270 1270 1270 1270 1270 1270 1270 1270 1270 1270 1270 1270 1270 1270 1270 1270 1270 1270 1270 6 1270 1270 1270 1270 1270 1270 1270 1270 1270 1270 1270 0 1270 1270 1270 1270 1270 10 1270 7 1270 1270 1270 1270 1270 1270 1270 1270 1270 1270 1270 1270 1270 1270 1270 1270 1270 1270 1270 14 1270 1270 1270 1270
1270 14 22 1270 1270 1270 12 1270 1270 1270 1270 1270 1270 1270 1270 1270 1270 1270 1270 1270 1270 1270 1270 8 1270 1270 1270 1270 1270 1270 1270 1270 1270 1270 1270 1270 1270 1270 1270 1270 0 1270 1270 1270 1270 1270 1270 1270 1270 1270 1270 1270 19 1270 1270 1270 1270 1270 1270 1270 1270 1270 1270 1270 1270 1270 9 1270 1270 1270 1270 1270
1270 1270 1270 1270 1270 1270 1270 1270 1270 1270 1270 1270 1270 1270 1270 1270 1270 4 1270 1270 1270 10 1270 1270 1270 1270 8 1270 1270 1270 1270 1270 1270 1270 1270 1270 1270 1270 1270 1270 1270 0 1270 1270 7 1270 1270 1270 1270 1270 1270 1270 1270 1270 1270 1270 1270 1270 1270 1270 1270 1270 1270 1270 1270 1270 1270 1270 1270 1270 1270 1270
21 1270 1270 1270 13 1270 1270 1270 1270 1270 1270 1270 1270 1270 1270 1270 1270 1270 1270 1270 1270 1270 1270 17 1270 1270 1270 1270 1270 1270 8 1270 1270 1270 1270 1270 1270 10 13 1270 1270 1270 0 1270 1270 1270 1270 1270 1270 1270 1270 1270 1270 1270 1270 1270 1270 1270 1270 1270 1270 1270 1270 1270 1270 1270 1270 1270 9 1270 1270 1270
1270 1270 1270 4 1270 1270 1270 1270 1270 1270 1270 1270 1270 1270 1270 11 1270 1270 12 1270 1270 1270 1270 1270 1270 1270 1270 1270 1270 1270 1270 1270 1270 1270 1270 1270 1270 1270 1270 1270 1270 1270 1270 0 1270 1270 1270 1270 9 1270 1270 1270 1270 1270 1270 1270 1270 1270 14 1270 1270 1270 1270 1270 1270 1270 1270 1270 1270 1270 1270 1270
1270 1270 1270 1270 1270 1270 1270 1270 1270 1270 1270 1270 1270 1270 1270 1270 1270 10 1270 1270 1270 10 1270 1270 1270 15 1270 1270 1270 5 24 1270 1270 1270 1270 1270 1270 1270 27 1270 1270 7 1270 1270 0 1270 1270 1270 1270 1270 1270 1270 1270 1270 1270 1270 1270 1270 1270 1270 1270 1270 1270 1270 1270 1270 1270 1270 1270 1270 1270 1270
1270 1270 1270 1270 1270 1270 1270 1270 1270 1270 1270 1270 1270 1270 1270 1270 1270 1270 1270 1270 1270 1270 6 1270 1270 1270 1270 1270 1270 1270 1270 1270 1270 1270 1270 1270 1270 1270 1270 10 1270 1270 1270 1270 1270 0 14 15 1270 1270 1270 1270 1270 1270 1270 1270 1270 1270 1270 1270 1270 1270 1270 1270 5 1270 1270 13 1270 1270 1270 1270
1270 1270 1270 1270 1270 1270 1270 1270 1270 1270 1270 1270 1270 1270 1270 1270 1270 1270 1270 1270 21 1270 1270 1270 1270 1270 1270 1270 1270 1270 1270 1270 1270 1270 1270 14 1270 1270 1270 1270 1270 1270 1270 1270 1270 14 0 18 1270 1270 1270 1270 1270 18 1270 17 1270 1270 1270 1270 1270 1270 1270 1270 13 1270 1270 1270 1270 1270 1270 1270
1270 1270 1270 1270 1270 1270 1270 1270 1270 1270 1270 1270 1270 1270 1270 1270 1270 1270 1270 1270 1270 1270 1270 1270 1270 1270 1270 9 1270 1270 1270 1270 1270 1270 1270 1270 1270 1270 1270 7 1270 1270 1270 1270 1270 15 18 0 1270 1270 1270 1270 1270 1270 1270 18 1270 1270 1270 1270 1270 13 1270 1270 1270 1270 1270 1270 1270 1270 1270 1270
1270 1270 1270 8 1270 1270 1270 1270 1270 1270 1270 1270 18 1270 1270 1270 1270 1270 19 1270 1270 1270 1270 1270 1270 1270 1270 1270 1270 1270 1270 1270 1270 9 1270 1270 1270 1270 1270 1270 1270 1270 1270 9 1270 1270 1270 1270 0 20 1270 1270 1270 1270 1270 1270 1270 1270 1270 1270 1270 1270 17 1270 1270 1270 1270 1270 1270 1270 1270 1270
1270 16 1270 1270 1270 1270 6 1270 1270 1270 12 1270 1270 1270 1270 1270 1270 1270 1270 1270 1270 1270 1270 1270 1270 1270 1270 1270 1270 1270 1270 1270 1270 16 1270 1270 1270 1270 1270 1270 1270 1270 1270 1270 1270 1270 1270 1270 20 0 1270 1270 1270 1270 1270 1270 14 1270 1270 1270 1270 1270 14 1270 1270 1270 1270 1270 1270 1270 1270 1270
1270 1270 1270 1270 1270 1270 1270 1270 3 1270 1270 1270 1270 1270 1270 1270 1270 1270 1270 1270 1270 1270 1270 1270 1270 1270 1270 1270 1270 1270 1270 1270 1270 1270 1270 1270 1270 1270 1270 1270 1270 1270 1270 1270 1270 1270 1270 1270 1270 1270 0 1 1270 1270 1270 1270 1270 7 1270 1270 1270 1270 1270 1270 1270 1270 1270 1270 1270 1270 1270 1270
1270 1270 1270 1270 1270 22 1270 1270 4 1270 1270 1270 1270 1270 12 1270 1270 1270 1270 1270 1270 1270 1270 1270 1270 1270 1270 1270 1270 1270 1270 1270 1270 1270 1270 1270 1270 1270 1270 1270 1270 1270 1270 1270 1270 1270 1270 1270 1270 1270 1 0 1270 1270 1270 1270 1270 7 1270 1270 1270 1270 1270 1270 1270 1270 1270 1270 1270 1270 1270 1270
1270 11 18 1270 1270 1270 1270 1270 1270 1270 1270 1270 1270 1270 1270 1270 1270 1270 1270 1270 1270 1270 1270 1270 1270 1270 1270 1270 1270 1270 1270 1270 1270 1270 16 1270 1270 1270 1270 1270 19 1270 1270 1270 1270 1270 1270 1270 1270 1270 1270 1270 0 16 1270 1270 1270 1270 1270 1270 1270 1270 1270 1270 1270 1270 1270 1270 1270 1270 1270 7
1270 1270 1270 1270 1270 1270 1270 1270 1270 1270 1270 12 1270 1270 1270 1270 1270 1270 1270 1270 14 1270 1270 1270 1270 1270 1270 1270 1270 1270 1270 1270 1270 1270 15 20 1270 1270 1270 1270 1270 1270 1270 1270 1270 1270 18 1270 1270 1270 1270 1270 16 0 1270 1270 1270 1270 1270 1270 1270 1270 1270 1270 1270 1270 1270 1270 1270 1270 1270 13
1270 1270 1270 1270 1270 42 1270 1270 1270 1270 1270 1270 1270 1270 1270 1270 1270 1270 1270 1270 1270 1270 1270 1270 1270 1270 1270 1270 1270 1270 1270 1270 1270 1270 1270 1270 1270 1270 1270 1270 1270 1270 1270 1270 1270 1270 1270 1270 1270 1270 1270 1270 1270 1270 0 1270 1270 1270 1270 1270 1270 1270 1270 10 1270 1270 1270 1270 1270 37 1270 1270
1270 1270 1270 1270 1270 1270 1270 1270 1270 1270 1270 1270 1270 1270 1270 1270 1270 1270 1270 1270 28 1270 1270 1270 1270 1270 1270 1270 1270 1270 1270 1270 1270 1270 1270 1270 1270 1270 1270 1270 1270 1270 1270 1270 1270 1270 17 18 1270 1270 1270 1270 1270 1270 1270 0 1270 1270 1270 1270 1270 27 1270 1270 1270 28 1270 1270 1270 1270 39 1270
1270 1270 1270 1270 1270 1270 1270 1270 1270 1270 7 1270 1270 1270 1270 1270 1270 19 1270 1270 1270 1270 1270 1270 1270 1270 24 1270 1270 1270 1270 1270 1270 18 1270 1270 1270 1270 1270 1270 1270 1270 1270 1270 1270 1270 1270 1270 1270 14 1270 1270 1270 1270 1270 1270 0 1270 1270 1270 1270 1270 1270 1270 1270 1270 1270 1270 1270 1270 1270 1270
1270 1270 20 1270 1270 1270 1270 1270 9 8 1270 1270 1270 1270 14 1270 1270 1270 1270 1270 1270 1270 1270 1270 1270 1270 1270 1270 1270 1270 1270 1270 1270 1270 1270 12 1270 1270 1270 1270 1270 1270 1270 1270 1270 1270 1270 1270 1270 1270 7 7 1270 1270 1270 1270 1270 0 1270 1270 1270 1270 1270 1270 1270 1270 1270 1270 1270 1270 1270 1270
1270 1270 1270 1270 1270 1270 1270 1270 1270 1270 1270 1270 1270 1270 1270 6 1270 1270 18 1270 1270 1270 1270 1270 1270 1270 1270 1270 1270 1270 1270 6 1270 1270 1270 1270 1270 1270 1270 1270 1270 1270 1270 14 1270 1270 1270 1270 1270 1270 1270 1270 1270 1270 1270 1270 1270 1270 0 1270 1270 1270 1270 1270 1270 1270 1270 1270 1270 1270 1270 1270
1270 1270 11 1270 1270 1270 1270 11 1270 1270 1270 1270 1270 1270 1270 1270 1270 1270 1270 11 1270 1270 1270 21 1270 1270 1270 1270 1270 1270 1270 1270 1270 1270 1270 1270 1270 4 1270 1270 1270 1270 1270 1270 1270 1270 1270 1270 1270 1270 1270 1270 1270 1270 1270 1270 1270 1270 1270 0 1270 1270 1270 1270 1270 1270 1270 1270 7 1270 1270 1270
1270 1270 1270 1270 1270 1270 1270 1270 1270 1270 1270 12 7 1270 1270 1270 1270 1270 1270 1270 1270 1270 1270 1270 1270 1270 1270 1270 3 1270 1270 1270 1270 1270 1270 1270 1270 1270 1270 1270 1270 1270 1270 1270 1270 1270 1270 1270 1270 1270 1270 1270 1270 1270 1270 1270 1270 1270 1270 1270 0 1270 1270 1270 1270 1270 1270 1270 1270 1270 1270 6
1270 1270 1270 1270 1270 1270 1270 1270 1270 1270 1270 1270 1270 1270 1270 1270 1270 1270 1270 1270 1270 1270 1270 1270 1270 1270 1270 12 1270 1270 1270 1270 1270 1270 1270 1270 1270 1270 1270 1270 1270 1270 1270 1270 1270 1270 1270 13 1270 1270 1270 1270 1270 1270 1270 27 1270 1270 1270 1270 1270 0 1270 1270 1270 2 1270 1270 1270 1270 1270 1270
1270 9 1270 1270 1270 1270 1270 1270 1270 1270 1270 1270 7 1270 1270 1270 1270 1270 1270 1270 1270 1270 1270 1270 1270 1270 1270 1270 5 1270 1270 1270 1270 1270 1270 1270 1270 1270 1270 1270 1270 1270 1270 1270 1270 1270 1270 1270 17 14 1270 1270 1270 1270 1270 1270 1270 1270 1270 1270 1270 1270 0 1270 1270 1270 1270 1270 1270 1270 1270 1270
15 1270 1270 1270 1270 41 1270 1270 1270 1270 1270 1270 1270 1270 1270 1270 1270 1270 1270 35 1270 1270 1270 1270 1270 1270 1270 1270 1270 1270 1270 1270 1270 1270 1270 1270 1270 1270 1270 1270 1270 1270 1270 1270 1270 1270 1270 1270 1270 1270 1270 1270 1270 1270 10 1270 1270 1270 1270 1270 1270 1270 1270 0 1270 1270 1270 1270 1270 28 1270 1270
1270 1270 1270 1270 1270 1270 1270 1270 1270 1270 1270 1270 1270 1270 1270 1270 1270 1270 1270 1270 1270 1270 7 1270 1270 1270 1270 1270 1270 1270 1270 1270 1270 1270 1270 3 1270 1270 1270 1270 1270 1270 1270 1270 1270 5 13 1270 1270 1270 1270 1270 1270 1270 1270 1270 1270 1270 1270 1270 1270 1270 1270 1270 0 1270 1270 1270 1270 1270 1270 1270
1270 1270 1270 1270 1270 53 1270 1270 1270 1270 1270 1270 1270 1270 1270 1270 1270 1270 1270 1270 1270 1270 1270 1270 1270 1270 1270 14 1270 1270 1270 1270 32 1270 1270 1270 1270 1270 1270 1270 1270 1270 1270 1270 1270 1270 1270 1270 1270 1270 1270 1270 1270 1270 1270 28 1270 1270 1270 1270 1270 2 1270 1270 1270 0 1270 27 1270 1270 1270 1270
1270 1270 1270 1270 1270 1270 10 1270 1270 1270 14 1270 1270 1270 1270 1270 1270 1270 1270 1270 1270 1270 1270 8 1270 10 1270 1270 1270 1270 1270 1270 1270 1270 1270 1270 4 1270 1270 1270 9 1270 1270 1270 1270 1270 1270 1270 1270 1270 1270 1270 1270 1270 1270 1270 1270 1270 1270 1270 1270 1270 1270 1270 1270 1270 0 1270 1270 1270 1270 1270
1270 1270 1270 1270 1270 1270 1270 1270 1270 1270 1270 1270 1270 1270 1270 1270 5 1270 1270 1270 1270 1270 10 1270 1270 1270 1270 14 1270 1270 1270 1270 5 1270 1270 1270 1270 1270 1270 14 1270 1270 1270 1270 1270 13 1270 1270 1270 1270 1270 1270 1270 1270 1270 1270 1270 1270 1270 1270 1270 1270 1270 1270 1270 27 1270 0 1270 1270 1270 1270
18 1270 1270 1270 1270 1270 1270 1270 1270 1270 1270 1270 1270 1270 1270 1270 1270 1270 1270 16 1270 1270 1270 1270 1270 1270 1270 1270 1270 1270 1270 1270 1270 1270 1270 1270 1270 3 1270 1270 1270 1270 9 1270 1270 1270 1270 1270 1270 1270 1270 1270 1270 1270 1270 1270 1270 1270 1270 7 1270 1270 1270 1270 1270 1270 1270 1270 0 1270 1270 1270
16 1270 1270 1270 6 1270 1270 1270 1270 1270 1270 1270 1270 50 1270 1270 1270 1270 1270 1270 1270 1270 1270 1270 1270 1270 1270 1270 1270 38 1270 1270 1270 1270 1270 1270 1270 1270 11 1270 1270 1270 1270 1270 1270 1270 1270 1270 1270 1270 1270 1270 1270 1270 37 1270 1270 1270 1270 1270 1270 1270 1270 28 1270 1270 1270 1270 1270 0 1270 1270
1270 1270 1270 1270 1270 1270 1270 1270 1270 1270 1270 20 1270 1270 1270 12 1270 1270 26 1270 17 1270 1270 1270 1270 1270 1270 1270 1270 1270 1270 2 1270 1270 1270 1270 1270 1270 1270 1270 1270 1270 1270 1270 1270 1270 1270 1270 1270 1270 1270 1270 1270 1270 1270 39 1270 1270 1270 1270 1270 1270 1270 1270 1270 1270 1270 1270 1270 1270 0 1270
1270 10 1270 1270 1270 1270 1270 1270 1270 1270 1270 15 1270 1270 1270 1270 1270 1270 1270 1270 1270 1270 1270 1270 1270 1270 1270 1270 8 1270 1270 1270 1270 1270 1270 1270 1270 1270 1270 1270 1270 1270 1270 1270 1270 1270 1270 1270 1270 1270 1270 1270 7 13 1270 1270 1270 1270 1270 1270 6 1270 1270 1270 1270 1270 1270 1270 1270 1270 1270 0
EOF
